c nombre: 4
c densidad: 0.1
p edges 70 241
e 1 13
e 1 15
e 1 28
e 1 34
e 1 55
e 1 56
e 1 59
e 1 64
e 2 4
e 2 9
e 2 11
e 2 23
e 2 38
e 2 41
e 2 43
e 2 48
e 2 53
e 2 70
e 3 4
e 3 7
e 3 27
e 4 37
e 4 44
e 4 46
e 4 55
e 4 61
e 4 69
e 5 6
e 5 15
e 5 37
e 5 63
e 6 10
e 6 19
e 6 33
e 6 36
e 6 42
e 6 52
e 6 53
e 6 60
e 7 17
e 7 20
e 7 25
e 7 32
e 7 34
e 7 47
e 7 67
e 7 69
e 8 10
e 8 12
e 8 22
e 8 30
e 8 51
e 9 19
e 9 22
e 9 48
e 9 56
e 9 61
e 9 66
e 10 30
e 10 35
e 10 36
e 10 39
e 10 49
e 11 44
e 11 47
e 11 51
e 11 58
e 11 61
e 12 38
e 12 43
e 12 51
e 13 19
e 13 31
e 13 40
e 13 42
e 13 46
e 13 63
e 14 17
e 14 18
e 14 41
e 14 57
e 14 64
e 15 20
e 15 36
e 15 41
e 16 28
e 16 32
e 16 52
e 16 68
e 17 21
e 17 24
e 17 39
e 17 51
e 17 63
e 17 67
e 17 69
e 18 26
e 18 49
e 18 56
e 18 67
e 19 23
e 19 29
e 19 31
e 19 52
e 19 58
e 19 66
e 19 68
e 20 21
e 20 25
e 20 29
e 20 30
e 20 40
e 20 52
e 20 67
e 21 27
e 21 31
e 21 32
e 21 36
e 21 42
e 21 49
e 21 62
e 21 68
e 22 24
e 22 38
e 22 63
e 23 34
e 23 46
e 23 54
e 23 60
e 23 63
e 23 67
e 24 29
e 24 57
e 24 60
e 24 67
e 25 57
e 25 66
e 26 30
e 26 59
e 26 67
e 27 34
e 27 61
e 27 65
e 28 45
e 28 50
e 28 52
e 28 66
e 29 51
e 29 57
e 29 70
e 30 46
e 30 57
e 30 59
e 30 62
e 31 32
e 31 35
e 31 38
e 31 52
e 31 62
e 32 38
e 32 42
e 32 57
e 32 59
e 32 67
e 32 68
e 33 47
e 33 55
e 34 35
e 34 48
e 34 58
e 34 59
e 34 69
e 35 36
e 35 41
e 35 46
e 35 52
e 35 53
e 36 38
e 36 52
e 36 58
e 37 44
e 37 58
e 37 62
e 38 47
e 38 62
e 39 42
e 39 50
e 39 59
e 39 62
e 40 41
e 40 45
e 40 61
e 40 65
e 40 67
e 40 68
e 41 52
e 41 54
e 41 62
e 41 69
e 42 47
e 42 48
e 43 55
e 43 56
e 44 49
e 44 50
e 44 65
e 44 66
e 45 51
e 45 57
e 45 69
e 46 48
e 46 57
e 46 62
e 47 50
e 47 53
e 47 63
e 48 51
e 49 51
e 49 70
e 50 69
e 51 57
e 53 56
e 53 57
e 53 58
e 55 63
e 55 64
e 55 65
e 56 64
e 57 65
e 57 66
e 57 68
e 58 64
e 59 62
e 59 65
e 60 62
e 61 62
e 61 63
e 62 63
e 62 65
e 62 68
e 63 67
